p edge 150 3353
e 1 7
e 1 9
e 1 14
e 1 22
e 1 24
e 1 25
e 1 28
e 1 30
e 1 31
e 1 33
e 1 36
e 1 43
e 1 45
e 1 46
e 1 49
e 1 50
e 1 58
e 1 66
e 1 68
e 1 70
e 1 80
e 1 81
e 1 83
e 1 85
e 1 87
e 1 89
e 1 90
e 1 93
e 1 98
e 1 102
e 1 104
e 1 106
e 1 108
e 1 110
e 1 112
e 1 121
e 1 122
e 1 123
e 1 124
e 1 134
e 1 135
e 1 138
e 1 140
e 1 141
e 1 143
e 1 144
e 1 146
e 1 149
e 1 150
e 2 5
e 2 7
e 2 11
e 2 12
e 2 15
e 2 28
e 2 35
e 2 37
e 2 39
e 2 45
e 2 48
e 2 50
e 2 58
e 2 60
e 2 72
e 2 74
e 2 75
e 2 76
e 2 77
e 2 83
e 2 84
e 2 86
e 2 89
e 2 90
e 2 91
e 2 96
e 2 101
e 2 105
e 2 115
e 2 117
e 2 118
e 2 120
e 2 122
e 2 123
e 2 124
e 2 125
e 2 130
e 2 138
e 2 141
e 2 143
e 2 145
e 2 148
e 3 9
e 3 11
e 3 12
e 3 16
e 3 24
e 3 27
e 3 28
e 3 30
e 3 33
e 3 36
e 3 37
e 3 41
e 3 42
e 3 45
e 3 47
e 3 49
e 3 50
e 3 51
e 3 57
e 3 58
e 3 59
e 3 66
e 3 67
e 3 69
e 3 72
e 3 83
e 3 88
e 3 89
e 3 90
e 3 95
e 3 96
e 3 105
e 3 107
e 3 108
e 3 110
e 3 111
e 3 113
e 3 114
e 3 117
e 3 118
e 3 120
e 3 121
e 3 122
e 3 124
e 3 128
e 3 140
e 3 145
e 3 147
e 4 8
e 4 9
e 4 10
e 4 13
e 4 15
e 4 16
e 4 17
e 4 18
e 4 19
e 4 20
e 4 22
e 4 24
e 4 25
e 4 28
e 4 33
e 4 39
e 4 41
e 4 56
e 4 60
e 4 65
e 4 70
e 4 72
e 4 74
e 4 75
e 4 84
e 4 86
e 4 87
e 4 104
e 4 111
e 4 112
e 4 115
e 4 118
e 4 121
e 4 127
e 4 132
e 4 133
e 4 137
e 4 139
e 4 144
e 4 146
e 5 6
e 5 7
e 5 8
e 5 16
e 5 18
e 5 22
e 5 24
e 5 30
e 5 32
e 5 36
e 5 37
e 5 42
e 5 45
e 5 49
e 5 52
e 5 53
e 5 57
e 5 68
e 5 69
e 5 70
e 5 78
e 5 80
e 5 83
e 5 88
e 5 89
e 5 93
e 5 97
e 5 98
e 5 103
e 5 108
e 5 110
e 5 114
e 5 115
e 5 117
e 5 118
e 5 121
e 5 132
e 5 135
e 5 136
e 5 137
e 5 144
e 5 149
e 5 150
e 6 7
e 6 11
e 6 13
e 6 17
e 6 20
e 6 27
e 6 28
e 6 30
e 6 32
e 6 33
e 6 36
e 6 39
e 6 45
e 6 51
e 6 61
e 6 62
e 6 66
e 6 67
e 6 81
e 6 86
e 6 87
e 6 101
e 6 103
e 6 107
e 6 108
e 6 111
e 6 112
e 6 113
e 6 115
e 6 123
e 6 124
e 6 126
e 6 127
e 6 128
e 6 130
e 6 132
e 6 133
e 6 137
e 6 138
e 6 142
e 6 144
e 6 150
e 7 9
e 7 10
e 7 16
e 7 19
e 7 23
e 7 26
e 7 32
e 7 39
e 7 47
e 7 58
e 7 63
e 7 65
e 7 68
e 7 72
e 7 78
e 7 80
e 7 84
e 7 88
e 7 89
e 7 90
e 7 95
e 7 97
e 7 99
e 7 100
e 7 102
e 7 109
e 7 110
e 7 115
e 7 121
e 7 125
e 7 127
e 7 134
e 7 143
e 7 144
e 7 145
e 7 147
e 7 148
e 7 149
e 8 11
e 8 13
e 8 15
e 8 19
e 8 20
e 8 22
e 8 23
e 8 30
e 8 32
e 8 39
e 8 45
e 8 47
e 8 48
e 8 57
e 8 58
e 8 60
e 8 61
e 8 64
e 8 72
e 8 75
e 8 77
e 8 78
e 8 80
e 8 83
e 8 88
e 8 89
e 8 91
e 8 93
e 8 94
e 8 97
e 8 98
e 8 100
e 8 104
e 8 110
e 8 113
e 8 118
e 8 119
e 8 122
e 8 131
e 8 132
e 8 135
e 8 136
e 8 137
e 8 142
e 8 143
e 8 145
e 8 147
e 8 148
e 9 10
e 9 11
e 9 13
e 9 19
e 9 21
e 9 22
e 9 25
e 9 27
e 9 31
e 9 34
e 9 35
e 9 36
e 9 37
e 9 43
e 9 44
e 9 45
e 9 46
e 9 50
e 9 51
e 9 55
e 9 59
e 9 63
e 9 65
e 9 66
e 9 69
e 9 74
e 9 75
e 9 76
e 9 78
e 9 95
e 9 96
e 9 98
e 9 108
e 9 110
e 9 111
e 9 112
e 9 118
e 9 123
e 9 127
e 9 131
e 9 132
e 9 135
e 9 136
e 9 146
e 10 11
e 10 17
e 10 20
e 10 21
e 10 29
e 10 30
e 10 32
e 10 42
e 10 43
e 10 44
e 10 55
e 10 60
e 10 68
e 10 73
e 10 74
e 10 75
e 10 78
e 10 80
e 10 82
e 10 90
e 10 93
e 10 94
e 10 96
e 10 99
e 10 102
e 10 108
e 10 111
e 10 112
e 10 117
e 10 118
e 10 120
e 10 123
e 10 125
e 10 126
e 10 129
e 10 130
e 10 131
e 10 134
e 10 136
e 10 146
e 10 148
e 11 12
e 11 13
e 11 19
e 11 20
e 11 22
e 11 24
e 11 26
e 11 30
e 11 33
e 11 36
e 11 37
e 11 44
e 11 58
e 11 59
e 11 60
e 11 61
e 11 63
e 11 66
e 11 67
e 11 69
e 11 72
e 11 76
e 11 78
e 11 80
e 11 85
e 11 87
e 11 89
e 11 93
e 11 94
e 11 100
e 11 101
e 11 105
e 11 106
e 11 113
e 11 116
e 11 120
e 11 128
e 11 134
e 11 139
e 11 140
e 11 141
e 11 142
e 11 149
e 11 150
e 12 14
e 12 17
e 12 23
e 12 24
e 12 25
e 12 26
e 12 27
e 12 40
e 12 41
e 12 43
e 12 44
e 12 46
e 12 47
e 12 65
e 12 68
e 12 69
e 12 70
e 12 71
e 12 73
e 12 75
e 12 77
e 12 79
e 12 90
e 12 93
e 12 94
e 12 95
e 12 111
e 12 115
e 12 120
e 12 122
e 12 124
e 12 127
e 12 132
e 12 133
e 12 134
e 12 135
e 12 139
e 12 143
e 12 146
e 12 147
e 12 149
e 12 150
e 13 26
e 13 27
e 13 30
e 13 31
e 13 32
e 13 33
e 13 34
e 13 35
e 13 41
e 13 54
e 13 56
e 13 61
e 13 68
e 13 69
e 13 70
e 13 72
e 13 79
e 13 83
e 13 89
e 13 92
e 13 99
e 13 101
e 13 103
e 13 104
e 13 105
e 13 115
e 13 120
e 13 123
e 13 128
e 13 130
e 13 133
e 13 135
e 13 136
e 13 137
e 13 141
e 13 144
e 13 145
e 13 146
e 14 15
e 14 18
e 14 23
e 14 25
e 14 29
e 14 34
e 14 38
e 14 41
e 14 49
e 14 51
e 14 53
e 14 58
e 14 63
e 14 65
e 14 70
e 14 76
e 14 79
e 14 82
e 14 87
e 14 93
e 14 94
e 14 98
e 14 101
e 14 102
e 14 104
e 14 106
e 14 107
e 14 109
e 14 110
e 14 114
e 14 117
e 14 119
e 14 121
e 14 122
e 14 127
e 14 128
e 14 131
e 14 134
e 14 135
e 14 136
e 14 137
e 14 144
e 14 146
e 14 149
e 15 20
e 15 22
e 15 23
e 15 24
e 15 25
e 15 26
e 15 30
e 15 31
e 15 36
e 15 42
e 15 45
e 15 46
e 15 57
e 15 58
e 15 59
e 15 61
e 15 63
e 15 66
e 15 69
e 15 77
e 15 78
e 15 79
e 15 80
e 15 81
e 15 84
e 15 86
e 15 87
e 15 88
e 15 93
e 15 96
e 15 106
e 15 111
e 15 114
e 15 117
e 15 119
e 15 120
e 15 121
e 15 126
e 15 128
e 15 129
e 15 132
e 15 135
e 15 142
e 15 143
e 15 144
e 15 150
e 16 21
e 16 22
e 16 23
e 16 26
e 16 29
e 16 30
e 16 32
e 16 34
e 16 36
e 16 37
e 16 38
e 16 40
e 16 42
e 16 47
e 16 51
e 16 52
e 16 55
e 16 57
e 16 63
e 16 64
e 16 67
e 16 74
e 16 75
e 16 77
e 16 78
e 16 80
e 16 83
e 16 91
e 16 92
e 16 93
e 16 94
e 16 95
e 16 98
e 16 100
e 16 108
e 16 111
e 16 113
e 16 116
e 16 118
e 16 122
e 16 127
e 16 130
e 16 137
e 16 147
e 17 18
e 17 21
e 17 22
e 17 25
e 17 28
e 17 30
e 17 35
e 17 36
e 17 37
e 17 39
e 17 41
e 17 42
e 17 46
e 17 51
e 17 52
e 17 58
e 17 68
e 17 72
e 17 74
e 17 76
e 17 77
e 17 78
e 17 81
e 17 83
e 17 85
e 17 90
e 17 92
e 17 95
e 17 104
e 17 109
e 17 110
e 17 112
e 17 121
e 17 122
e 17 124
e 17 127
e 17 131
e 17 132
e 17 133
e 17 134
e 17 142
e 17 143
e 17 144
e 17 145
e 17 149
e 18 19
e 18 20
e 18 25
e 18 27
e 18 34
e 18 35
e 18 38
e 18 40
e 18 42
e 18 45
e 18 46
e 18 51
e 18 52
e 18 57
e 18 59
e 18 63
e 18 65
e 18 69
e 18 70
e 18 75
e 18 76
e 18 78
e 18 86
e 18 87
e 18 89
e 18 92
e 18 103
e 18 104
e 18 108
e 18 110
e 18 119
e 18 120
e 18 128
e 18 129
e 18 132
e 18 133
e 18 134
e 18 142
e 18 144
e 19 20
e 19 21
e 19 27
e 19 34
e 19 37
e 19 41
e 19 44
e 19 49
e 19 50
e 19 56
e 19 58
e 19 60
e 19 62
e 19 65
e 19 67
e 19 68
e 19 72
e 19 75
e 19 81
e 19 83
e 19 87
e 19 89
e 19 90
e 19 92
e 19 93
e 19 97
e 19 98
e 19 99
e 19 100
e 19 103
e 19 104
e 19 114
e 19 116
e 19 119
e 19 120
e 19 127
e 19 138
e 19 140
e 19 141
e 19 144
e 20 27
e 20 28
e 20 29
e 20 31
e 20 32
e 20 33
e 20 36
e 20 39
e 20 42
e 20 50
e 20 52
e 20 61
e 20 68
e 20 70
e 20 77
e 20 79
e 20 83
e 20 91
e 20 94
e 20 96
e 20 99
e 20 106
e 20 107
e 20 109
e 20 110
e 20 115
e 20 119
e 20 122
e 20 123
e 20 124
e 20 130
e 20 136
e 20 145
e 21 26
e 21 27
e 21 28
e 21 30
e 21 31
e 21 33
e 21 35
e 21 36
e 21 38
e 21 39
e 21 45
e 21 54
e 21 57
e 21 60
e 21 70
e 21 72
e 21 73
e 21 74
e 21 81
e 21 84
e 21 86
e 21 89
e 21 91
e 21 92
e 21 97
e 21 99
e 21 104
e 21 106
e 21 108
e 21 113
e 21 118
e 21 121
e 21 125
e 21 126
e 21 130
e 21 131
e 21 132
e 21 134
e 21 136
e 21 137
e 21 146
e 22 26
e 22 30
e 22 31
e 22 38
e 22 39
e 22 45
e 22 46
e 22 47
e 22 51
e 22 52
e 22 56
e 22 57
e 22 58
e 22 65
e 22 72
e 22 76
e 22 80
e 22 82
e 22 85
e 22 87
e 22 88
e 22 90
e 22 92
e 22 94
e 22 105
e 22 108
e 22 113
e 22 115
e 22 116
e 22 119
e 22 120
e 22 121
e 22 138
e 22 140
e 22 142
e 22 144
e 22 149
e 23 27
e 23 28
e 23 32
e 23 34
e 23 35
e 23 36
e 23 37
e 23 39
e 23 44
e 23 45
e 23 49
e 23 56
e 23 59
e 23 60
e 23 64
e 23 69
e 23 70
e 23 72
e 23 77
e 23 86
e 23 88
e 23 93
e 23 94
e 23 98
e 23 99
e 23 100
e 23 102
e 23 104
e 23 105
e 23 109
e 23 112
e 23 114
e 23 115
e 23 117
e 23 121
e 23 126
e 23 129
e 23 137
e 23 140
e 24 25
e 24 29
e 24 31
e 24 32
e 24 33
e 24 34
e 24 36
e 24 38
e 24 39
e 24 43
e 24 47
e 24 48
e 24 53
e 24 57
e 24 69
e 24 70
e 24 71
e 24 74
e 24 79
e 24 82
e 24 83
e 24 85
e 24 88
e 24 94
e 24 99
e 24 100
e 24 104
e 24 105
e 24 114
e 24 115
e 24 120
e 24 124
e 24 130
e 24 134
e 24 142
e 24 144
e 24 146
e 24 148
e 24 150
e 25 31
e 25 34
e 25 36
e 25 39
e 25 42
e 25 43
e 25 47
e 25 53
e 25 54
e 25 56
e 25 58
e 25 62
e 25 64
e 25 65
e 25 70
e 25 72
e 25 76
e 25 82
e 25 88
e 25 90
e 25 91
e 25 93
e 25 105
e 25 112
e 25 113
e 25 114
e 25 118
e 25 119
e 25 124
e 25 129
e 25 133
e 25 138
e 25 139
e 25 143
e 25 146
e 25 150
e 26 27
e 26 30
e 26 31
e 26 33
e 26 36
e 26 37
e 26 38
e 26 40
e 26 44
e 26 45
e 26 46
e 26 54
e 26 57
e 26 59
e 26 62
e 26 65
e 26 68
e 26 73
e 26 77
e 26 78
e 26 79
e 26 85
e 26 86
e 26 87
e 26 90
e 26 101
e 26 113
e 26 119
e 26 120
e 26 121
e 26 124
e 26 127
e 26 128
e 26 132
e 26 133
e 26 134
e 26 135
e 26 136
e 26 138
e 26 139
e 26 140
e 26 149
e 27 29
e 27 34
e 27 39
e 27 46
e 27 57
e 27 58
e 27 59
e 27 63
e 27 64
e 27 73
e 27 81
e 27 83
e 27 86
e 27 88
e 27 95
e 27 109
e 27 110
e 27 112
e 27 117
e 27 127
e 27 129
e 27 136
e 27 143
e 28 31
e 28 33
e 28 34
e 28 39
e 28 43
e 28 48
e 28 55
e 28 59
e 28 61
e 28 64
e 28 66
e 28 69
e 28 75
e 28 79
e 28 81
e 28 88
e 28 89
e 28 91
e 28 95
e 28 99
e 28 104
e 28 108
e 28 109
e 28 110
e 28 112
e 28 113
e 28 114
e 28 121
e 28 123
e 28 124
e 28 127
e 28 135
e 28 136
e 28 139
e 28 143
e 28 146
e 28 148
e 29 31
e 29 36
e 29 39
e 29 40
e 29 47
e 29 51
e 29 52
e 29 54
e 29 56
e 29 61
e 29 62
e 29 63
e 29 65
e 29 69
e 29 79
e 29 80
e 29 84
e 29 85
e 29 91
e 29 93
e 29 95
e 29 100
e 29 101
e 29 102
e 29 103
e 29 107
e 29 112
e 29 113
e 29 115
e 29 117
e 29 120
e 29 121
e 29 127
e 29 129
e 29 130
e 29 131
e 29 132
e 29 133
e 29 136
e 29 137
e 29 139
e 29 140
e 29 143
e 29 149
e 30 32
e 30 35
e 30 36
e 30 39
e 30 40
e 30 50
e 30 52
e 30 53
e 30 57
e 30 59
e 30 60
e 30 61
e 30 63
e 30 66
e 30 69
e 30 70
e 30 72
e 30 76
e 30 82
e 30 83
e 30 86
e 30 90
e 30 92
e 30 93
e 30 95
e 30 96
e 30 97
e 30 101
e 30 103
e 30 112
e 30 114
e 30 115
e 30 126
e 30 131
e 30 139
e 30 143
e 30 144
e 31 32
e 31 36
e 31 40
e 31 43
e 31 46
e 31 50
e 31 52
e 31 55
e 31 57
e 31 59
e 31 66
e 31 71
e 31 72
e 31 76
e 31 78
e 31 80
e 31 86
e 31 89
e 31 90
e 31 91
e 31 92
e 31 93
e 31 97
e 31 98
e 31 100
e 31 103
e 31 104
e 31 106
e 31 110
e 31 113
e 31 115
e 31 119
e 31 121
e 31 127
e 31 130
e 31 139
e 31 140
e 31 142
e 31 147
e 32 33
e 32 40
e 32 42
e 32 46
e 32 47
e 32 49
e 32 50
e 32 51
e 32 54
e 32 55
e 32 56
e 32 57
e 32 59
e 32 61
e 32 64
e 32 69
e 32 79
e 32 80
e 32 83
e 32 90
e 32 93
e 32 95
e 32 97
e 32 109
e 32 117
e 32 118
e 32 120
e 32 121
e 32 122
e 32 123
e 32 129
e 32 131
e 32 132
e 32 133
e 32 136
e 32 137
e 32 138
e 32 146
e 33 34
e 33 40
e 33 48
e 33 55
e 33 62
e 33 63
e 33 69
e 33 70
e 33 72
e 33 77
e 33 81
e 33 83
e 33 87
e 33 93
e 33 95
e 33 96
e 33 97
e 33 109
e 33 113
e 33 115
e 33 126
e 33 129
e 33 130
e 33 132
e 33 133
e 33 134
e 33 140
e 33 141
e 33 142
e 33 143
e 33 150
e 34 37
e 34 38
e 34 40
e 34 42
e 34 48
e 34 49
e 34 51
e 34 59
e 34 64
e 34 65
e 34 68
e 34 71
e 34 73
e 34 76
e 34 84
e 34 85
e 34 89
e 34 90
e 34 91
e 34 92
e 34 101
e 34 103
e 34 104
e 34 111
e 34 112
e 34 114
e 34 116
e 34 123
e 34 134
e 34 140
e 34 141
e 34 149
e 35 37
e 35 38
e 35 41
e 35 42
e 35 47
e 35 54
e 35 55
e 35 56
e 35 57
e 35 67
e 35 68
e 35 70
e 35 71
e 35 74
e 35 79
e 35 83
e 35 86
e 35 87
e 35 89
e 35 90
e 35 92
e 35 95
e 35 109
e 35 111
e 35 113
e 35 116
e 35 119
e 35 123
e 35 125
e 35 126
e 35 135
e 35 136
e 35 139
e 35 146
e 35 148
e 35 150
e 36 39
e 36 40
e 36 41
e 36 48
e 36 51
e 36 52
e 36 54
e 36 55
e 36 59
e 36 60
e 36 61
e 36 63
e 36 64
e 36 70
e 36 77
e 36 84
e 36 87
e 36 91
e 36 96
e 36 98
e 36 99
e 36 102
e 36 105
e 36 106
e 36 113
e 36 117
e 36 121
e 36 125
e 36 126
e 36 128
e 36 129
e 36 133
e 36 134
e 36 135
e 36 136
e 36 137
e 36 138
e 36 140
e 36 144
e 36 150
e 37 44
e 37 48
e 37 50
e 37 54
e 37 57
e 37 59
e 37 64
e 37 65
e 37 66
e 37 69
e 37 70
e 37 72
e 37 74
e 37 76
e 37 78
e 37 86
e 37 87
e 37 95
e 37 97
e 37 100
e 37 102
e 37 104
e 37 108
e 37 110
e 37 113
e 37 114
e 37 115
e 37 116
e 37 129
e 37 133
e 37 137
e 37 140
e 37 143
e 37 144
e 37 146
e 38 47
e 38 51
e 38 52
e 38 54
e 38 57
e 38 67
e 38 72
e 38 73
e 38 74
e 38 77
e 38 84
e 38 85
e 38 86
e 38 87
e 38 88
e 38 89
e 38 91
e 38 97
e 38 98
e 38 103
e 38 110
e 38 121
e 38 125
e 38 129
e 38 131
e 38 132
e 38 136
e 38 137
e 38 141
e 38 142
e 38 143
e 38 144
e 38 147
e 39 46
e 39 47
e 39 49
e 39 50
e 39 53
e 39 56
e 39 59
e 39 62
e 39 65
e 39 74
e 39 75
e 39 79
e 39 80
e 39 81
e 39 83
e 39 86
e 39 90
e 39 91
e 39 96
e 39 102
e 39 103
e 39 107
e 39 108
e 39 113
e 39 114
e 39 117
e 39 127
e 39 130
e 39 131
e 39 132
e 39 133
e 39 136
e 39 138
e 39 140
e 39 142
e 39 143
e 39 144
e 39 150
e 40 41
e 40 44
e 40 46
e 40 47
e 40 50
e 40 63
e 40 69
e 40 72
e 40 73
e 40 81
e 40 83
e 40 90
e 40 91
e 40 93
e 40 95
e 40 96
e 40 99
e 40 101
e 40 103
e 40 104
e 40 106
e 40 107
e 40 110
e 40 111
e 40 114
e 40 115
e 40 118
e 40 121
e 40 131
e 40 134
e 40 139
e 40 140
e 40 142
e 40 149
e 40 150
e 41 43
e 41 45
e 41 46
e 41 50
e 41 54
e 41 57
e 41 62
e 41 65
e 41 69
e 41 71
e 41 73
e 41 74
e 41 79
e 41 83
e 41 84
e 41 86
e 41 87
e 41 92
e 41 95
e 41 98
e 41 99
e 41 100
e 41 104
e 41 105
e 41 106
e 41 110
e 41 111
e 41 121
e 41 125
e 41 126
e 41 128
e 41 129
e 41 134
e 41 136
e 41 139
e 41 143
e 41 146
e 41 150
e 42 45
e 42 50
e 42 51
e 42 55
e 42 60
e 42 62
e 42 63
e 42 65
e 42 69
e 42 73
e 42 74
e 42 75
e 42 79
e 42 81
e 42 86
e 42 90
e 42 91
e 42 93
e 42 96
e 42 97
e 42 103
e 42 111
e 42 114
e 42 116
e 42 118
e 42 121
e 42 123
e 42 125
e 42 126
e 42 130
e 42 131
e 42 132
e 42 136
e 42 141
e 42 146
e 42 148
e 43 44
e 43 45
e 43 46
e 43 50
e 43 57
e 43 60
e 43 62
e 43 65
e 43 67
e 43 71
e 43 76
e 43 77
e 43 78
e 43 80
e 43 83
e 43 87
e 43 92
e 43 94
e 43 96
e 43 98
e 43 103
e 43 112
e 43 113
e 43 115
e 43 118
e 43 119
e 43 121
e 43 124
e 43 126
e 43 130
e 43 131
e 43 133
e 43 139
e 43 142
e 43 147
e 43 150
e 44 58
e 44 60
e 44 65
e 44 66
e 44 71
e 44 72
e 44 73
e 44 75
e 44 82
e 44 87
e 44 88
e 44 90
e 44 91
e 44 94
e 44 98
e 44 107
e 44 117
e 44 118
e 44 123
e 44 126
e 44 127
e 44 128
e 44 138
e 44 143
e 44 148
e 44 149
e 45 46
e 45 47
e 45 52
e 45 53
e 45 65
e 45 70
e 45 73
e 45 75
e 45 79
e 45 81
e 45 83
e 45 86
e 45 90
e 45 101
e 45 102
e 45 104
e 45 105
e 45 107
e 45 111
e 45 113
e 45 118
e 45 119
e 45 129
e 45 130
e 45 134
e 45 135
e 45 139
e 45 140
e 45 148
e 45 150
e 46 49
e 46 51
e 46 53
e 46 56
e 46 57
e 46 62
e 46 68
e 46 79
e 46 83
e 46 84
e 46 88
e 46 90
e 46 96
e 46 107
e 46 111
e 46 115
e 46 117
e 46 118
e 46 120
e 46 122
e 46 126
e 46 127
e 46 128
e 46 139
e 46 141
e 47 48
e 47 54
e 47 56
e 47 71
e 47 73
e 47 85
e 47 86
e 47 89
e 47 90
e 47 97
e 47 101
e 47 102
e 47 103
e 47 110
e 47 111
e 47 113
e 47 115
e 47 119
e 47 122
e 47 124
e 47 129
e 47 131
e 47 139
e 47 150
e 48 50
e 48 52
e 48 53
e 48 55
e 48 70
e 48 71
e 48 77
e 48 78
e 48 79
e 48 82
e 48 92
e 48 93
e 48 96
e 48 98
e 48 106
e 48 108
e 48 109
e 48 111
e 48 112
e 48 114
e 48 121
e 48 124
e 48 125
e 48 127
e 48 131
e 48 134
e 48 136
e 48 143
e 48 144
e 49 50
e 49 55
e 49 59
e 49 60
e 49 61
e 49 62
e 49 65
e 49 67
e 49 71
e 49 72
e 49 76
e 49 77
e 49 81
e 49 89
e 49 91
e 49 94
e 49 95
e 49 96
e 49 97
e 49 101
e 49 102
e 49 103
e 49 107
e 49 110
e 49 111
e 49 114
e 49 119
e 49 122
e 49 124
e 49 128
e 49 129
e 49 132
e 49 135
e 49 136
e 49 138
e 49 140
e 49 141
e 49 143
e 49 144
e 49 145
e 50 53
e 50 61
e 50 67
e 50 69
e 50 70
e 50 75
e 50 76
e 50 78
e 50 84
e 50 85
e 50 87
e 50 90
e 50 91
e 50 94
e 50 95
e 50 96
e 50 97
e 50 98
e 50 101
e 50 102
e 50 106
e 50 107
e 50 114
e 50 119
e 50 125
e 50 139
e 50 141
e 50 145
e 51 57
e 51 64
e 51 65
e 51 66
e 51 67
e 51 71
e 51 76
e 51 77
e 51 85
e 51 86
e 51 90
e 51 91
e 51 92
e 51 93
e 51 94
e 51 98
e 51 99
e 51 100
e 51 103
e 51 105
e 51 109
e 51 110
e 51 112
e 51 118
e 51 121
e 51 124
e 51 128
e 51 133
e 51 135
e 51 143
e 51 147
e 51 148
e 51 149
e 51 150
e 52 57
e 52 59
e 52 63
e 52 69
e 52 78
e 52 85
e 52 88
e 52 89
e 52 94
e 52 104
e 52 105
e 52 109
e 52 111
e 52 114
e 52 124
e 52 127
e 52 128
e 52 129
e 52 140
e 52 142
e 52 147
e 52 150
e 53 60
e 53 61
e 53 69
e 53 73
e 53 75
e 53 80
e 53 85
e 53 87
e 53 99
e 53 100
e 53 101
e 53 104
e 53 108
e 53 110
e 53 111
e 53 114
e 53 115
e 53 116
e 53 117
e 53 123
e 53 124
e 53 125
e 53 126
e 53 131
e 53 132
e 53 135
e 53 142
e 53 145
e 53 147
e 54 60
e 54 62
e 54 64
e 54 68
e 54 69
e 54 76
e 54 82
e 54 86
e 54 88
e 54 94
e 54 99
e 54 100
e 54 107
e 54 108
e 54 112
e 54 117
e 54 119
e 54 124
e 54 127
e 54 129
e 54 131
e 54 132
e 54 141
e 54 143
e 54 148
e 54 149
e 55 56
e 55 57
e 55 58
e 55 61
e 55 67
e 55 69
e 55 74
e 55 76
e 55 78
e 55 82
e 55 83
e 55 89
e 55 92
e 55 95
e 55 96
e 55 98
e 55 100
e 55 114
e 55 119
e 55 123
e 55 127
e 55 131
e 55 133
e 55 136
e 55 137
e 55 142
e 55 143
e 55 145
e 55 147
e 55 149
e 56 59
e 56 66
e 56 67
e 56 68
e 56 75
e 56 78
e 56 79
e 56 80
e 56 81
e 56 85
e 56 88
e 56 89
e 56 101
e 56 107
e 56 108
e 56 111
e 56 116
e 56 121
e 56 125
e 56 126
e 56 127
e 56 133
e 56 143
e 56 147
e 56 148
e 57 61
e 57 72
e 57 74
e 57 86
e 57 93
e 57 94
e 57 99
e 57 100
e 57 111
e 57 115
e 57 117
e 57 118
e 57 120
e 57 139
e 57 144
e 57 148
e 58 60
e 58 62
e 58 66
e 58 68
e 58 69
e 58 73
e 58 75
e 58 76
e 58 77
e 58 79
e 58 81
e 58 82
e 58 90
e 58 91
e 58 99
e 58 100
e 58 110
e 58 116
e 58 124
e 58 128
e 58 130
e 58 136
e 58 140
e 58 145
e 58 146
e 58 148
e 59 61
e 59 63
e 59 65
e 59 66
e 59 67
e 59 68
e 59 70
e 59 71
e 59 72
e 59 75
e 59 78
e 59 84
e 59 87
e 59 88
e 59 93
e 59 111
e 59 112
e 59 113
e 59 114
e 59 117
e 59 118
e 59 119
e 59 120
e 59 121
e 59 122
e 59 123
e 59 128
e 59 134
e 59 137
e 59 145
e 60 66
e 60 67
e 60 68
e 60 70
e 60 76
e 60 77
e 60 79
e 60 85
e 60 87
e 60 88
e 60 89
e 60 90
e 60 91
e 60 94
e 60 113
e 60 115
e 60 117
e 60 122
e 60 125
e 60 131
e 60 141
e 60 145
e 60 148
e 60 150
e 61 63
e 61 65
e 61 66
e 61 71
e 61 76
e 61 80
e 61 81
e 61 84
e 61 86
e 61 87
e 61 92
e 61 94
e 61 98
e 61 103
e 61 104
e 61 106
e 61 109
e 61 110
e 61 111
e 61 112
e 61 116
e 61 117
e 61 118
e 61 119
e 61 125
e 61 126
e 61 129
e 61 134
e 61 137
e 61 141
e 61 144
e 61 149
e 62 63
e 62 65
e 62 66
e 62 67
e 62 69
e 62 70
e 62 71
e 62 82
e 62 91
e 62 94
e 62 95
e 62 97
e 62 100
e 62 101
e 62 107
e 62 113
e 62 114
e 62 120
e 62 123
e 62 124
e 62 133
e 62 138
e 62 141
e 62 145
e 63 69
e 63 73
e 63 76
e 63 79
e 63 88
e 63 89
e 63 94
e 63 105
e 63 107
e 63 112
e 63 116
e 63 120
e 63 127
e 63 129
e 63 132
e 63 133
e 63 134
e 63 139
e 63 140
e 63 141
e 63 142
e 63 143
e 64 70
e 64 71
e 64 72
e 64 79
e 64 81
e 64 83
e 64 88
e 64 91
e 64 95
e 64 99
e 64 101
e 64 104
e 64 113
e 64 115
e 64 121
e 64 125
e 64 127
e 64 129
e 64 132
e 64 134
e 64 135
e 64 136
e 64 138
e 64 141
e 64 144
e 64 145
e 64 147
e 64 148
e 64 149
e 65 71
e 65 73
e 65 79
e 65 80
e 65 83
e 65 86
e 65 87
e 65 89
e 65 92
e 65 102
e 65 105
e 65 106
e 65 107
e 65 111
e 65 115
e 65 120
e 65 122
e 65 123
e 65 126
e 65 135
e 65 139
e 65 142
e 65 143
e 65 147
e 65 148
e 65 149
e 65 150
e 66 67
e 66 68
e 66 72
e 66 74
e 66 75
e 66 76
e 66 77
e 66 80
e 66 81
e 66 84
e 66 85
e 66 86
e 66 101
e 66 103
e 66 104
e 66 105
e 66 109
e 66 111
e 66 113
e 66 116
e 66 121
e 66 126
e 66 135
e 66 138
e 66 142
e 66 150
e 67 71
e 67 72
e 67 73
e 67 78
e 67 79
e 67 85
e 67 88
e 67 89
e 67 93
e 67 96
e 67 98
e 67 103
e 67 106
e 67 112
e 67 119
e 67 120
e 67 124
e 67 126
e 67 127
e 67 131
e 67 132
e 67 136
e 67 140
e 67 147
e 68 70
e 68 74
e 68 75
e 68 77
e 68 78
e 68 82
e 68 87
e 68 91
e 68 97
e 68 106
e 68 107
e 68 109
e 68 112
e 68 117
e 68 120
e 68 125
e 68 128
e 68 129
e 68 133
e 68 137
e 68 138
e 68 140
e 68 143
e 68 147
e 68 149
e 69 75
e 69 76
e 69 79
e 69 80
e 69 84
e 69 88
e 69 95
e 69 108
e 69 111
e 69 114
e 69 117
e 69 128
e 69 133
e 69 134
e 69 137
e 69 140
e 69 142
e 69 143
e 70 77
e 70 80
e 70 85
e 70 86
e 70 87
e 70 89
e 70 92
e 70 94
e 70 95
e 70 97
e 70 103
e 70 106
e 70 110
e 70 112
e 70 113
e 70 116
e 70 117
e 70 119
e 70 120
e 70 122
e 70 126
e 70 132
e 70 135
e 70 140
e 70 144
e 71 72
e 71 78
e 71 81
e 71 94
e 71 95
e 71 100
e 71 106
e 71 116
e 71 118
e 71 121
e 71 127
e 71 132
e 71 133
e 71 140
e 71 150
e 72 74
e 72 79
e 72 81
e 72 84
e 72 85
e 72 86
e 72 87
e 72 92
e 72 101
e 72 103
e 72 105
e 72 109
e 72 111
e 72 112
e 72 122
e 72 125
e 72 127
e 72 130
e 72 131
e 72 142
e 72 146
e 72 148
e 72 150
e 73 74
e 73 81
e 73 82
e 73 86
e 73 93
e 73 95
e 73 99
e 73 100
e 73 101
e 73 103
e 73 107
e 73 110
e 73 111
e 73 113
e 73 118
e 73 120
e 73 121
e 73 126
e 73 128
e 73 133
e 73 134
e 73 135
e 73 139
e 73 140
e 73 142
e 73 144
e 73 146
e 73 147
e 73 149
e 74 75
e 74 76
e 74 77
e 74 79
e 74 89
e 74 90
e 74 91
e 74 94
e 74 98
e 74 102
e 74 104
e 74 107
e 74 111
e 74 113
e 74 114
e 74 115
e 74 118
e 74 120
e 74 125
e 74 131
e 74 134
e 74 142
e 74 149
e 75 81
e 75 83
e 75 85
e 75 87
e 75 90
e 75 92
e 75 93
e 75 96
e 75 97
e 75 98
e 75 103
e 75 106
e 75 107
e 75 109
e 75 114
e 75 119
e 75 120
e 75 122
e 75 125
e 75 128
e 75 129
e 75 132
e 75 133
e 75 138
e 75 142
e 75 146
e 75 148
e 76 81
e 76 83
e 76 86
e 76 91
e 76 97
e 76 98
e 76 104
e 76 106
e 76 115
e 76 117
e 76 121
e 76 123
e 76 125
e 76 128
e 76 132
e 76 133
e 76 138
e 76 145
e 77 79
e 77 84
e 77 85
e 77 86
e 77 89
e 77 90
e 77 95
e 77 97
e 77 98
e 77 99
e 77 102
e 77 103
e 77 104
e 77 105
e 77 106
e 77 107
e 77 112
e 77 113
e 77 115
e 77 116
e 77 121
e 77 126
e 77 127
e 77 129
e 77 130
e 77 131
e 77 132
e 77 134
e 77 138
e 77 142
e 77 148
e 78 79
e 78 82
e 78 86
e 78 87
e 78 90
e 78 93
e 78 94
e 78 95
e 78 98
e 78 99
e 78 103
e 78 105
e 78 106
e 78 108
e 78 111
e 78 113
e 78 117
e 78 118
e 78 123
e 78 126
e 78 128
e 78 131
e 78 135
e 78 137
e 78 138
e 78 139
e 78 144
e 78 148
e 78 149
e 79 84
e 79 85
e 79 89
e 79 90
e 79 92
e 79 93
e 79 96
e 79 99
e 79 102
e 79 103
e 79 104
e 79 105
e 79 107
e 79 111
e 79 113
e 79 115
e 79 122
e 79 123
e 79 129
e 79 136
e 79 138
e 79 141
e 79 143
e 79 144
e 79 146
e 79 149
e 80 82
e 80 84
e 80 87
e 80 89
e 80 91
e 80 97
e 80 106
e 80 107
e 80 110
e 80 112
e 80 113
e 80 117
e 80 121
e 80 122
e 80 129
e 80 130
e 80 144
e 80 145
e 80 146
e 80 149
e 80 150
e 81 83
e 81 84
e 81 89
e 81 91
e 81 104
e 81 106
e 81 113
e 81 116
e 81 120
e 81 121
e 81 122
e 81 123
e 81 129
e 81 130
e 81 132
e 81 134
e 81 136
e 81 139
e 81 148
e 82 86
e 82 88
e 82 96
e 82 101
e 82 105
e 82 109
e 82 111
e 82 114
e 82 116
e 82 119
e 82 124
e 82 125
e 82 126
e 82 128
e 82 130
e 82 131
e 82 135
e 82 136
e 82 143
e 83 84
e 83 97
e 83 102
e 83 107
e 83 113
e 83 116
e 83 118
e 83 119
e 83 121
e 83 123
e 83 125
e 83 128
e 83 132
e 83 135
e 83 138
e 83 140
e 83 142
e 83 148
e 83 149
e 84 87
e 84 90
e 84 93
e 84 97
e 84 98
e 84 99
e 84 100
e 84 103
e 84 106
e 84 108
e 84 110
e 84 116
e 84 123
e 84 127
e 84 128
e 84 130
e 84 135
e 84 137
e 84 140
e 84 143
e 84 144
e 84 147
e 84 149
e 85 87
e 85 89
e 85 95
e 85 98
e 85 103
e 85 105
e 85 106
e 85 111
e 85 114
e 85 115
e 85 116
e 85 119
e 85 121
e 85 128
e 85 131
e 85 132
e 85 137
e 85 143
e 85 146
e 85 149
e 85 150
e 86 91
e 86 94
e 86 99
e 86 100
e 86 108
e 86 110
e 86 117
e 86 118
e 86 120
e 86 121
e 86 122
e 86 125
e 86 130
e 86 132
e 86 144
e 86 145
e 86 147
e 87 90
e 87 93
e 87 99
e 87 104
e 87 105
e 87 109
e 87 111
e 87 113
e 87 115
e 87 119
e 87 123
e 87 126
e 87 129
e 87 130
e 87 131
e 87 134
e 87 136
e 87 139
e 87 143
e 87 144
e 87 146
e 87 147
e 88 89
e 88 90
e 88 95
e 88 97
e 88 99
e 88 101
e 88 103
e 88 107
e 88 119
e 88 123
e 88 131
e 88 140
e 88 143
e 88 146
e 88 147
e 88 150
e 89 96
e 89 97
e 89 101
e 89 108
e 89 110
e 89 111
e 89 115
e 89 118
e 89 120
e 89 121
e 89 123
e 89 128
e 89 134
e 89 135
e 89 136
e 89 140
e 89 144
e 89 145
e 90 92
e 90 96
e 90 104
e 90 108
e 90 114
e 90 119
e 90 122
e 90 124
e 90 130
e 90 136
e 90 139
e 90 140
e 90 142
e 90 143
e 90 149
e 91 97
e 91 98
e 91 99
e 91 101
e 91 103
e 91 104
e 91 108
e 91 111
e 91 114
e 91 126
e 91 129
e 91 131
e 91 133
e 91 134
e 91 135
e 91 136
e 91 137
e 91 142
e 91 149
e 91 150
e 92 96
e 92 101
e 92 102
e 92 103
e 92 104
e 92 112
e 92 115
e 92 121
e 92 126
e 92 142
e 92 147
e 92 149
e 93 95
e 93 101
e 93 104
e 93 110
e 93 113
e 93 120
e 93 122
e 93 123
e 93 128
e 93 135
e 93 140
e 93 144
e 93 148
e 93 150
e 94 95
e 94 96
e 94 101
e 94 102
e 94 106
e 94 107
e 94 112
e 94 113
e 94 115
e 94 117
e 94 118
e 94 119
e 94 122
e 94 123
e 94 128
e 94 138
e 94 139
e 94 141
e 94 142
e 95 104
e 95 106
e 95 107
e 95 108
e 95 109
e 95 112
e 95 113
e 95 115
e 95 117
e 95 119
e 95 121
e 95 130
e 95 132
e 95 134
e 95 135
e 95 138
e 95 143
e 95 145
e 95 147
e 95 148
e 96 102
e 96 103
e 96 107
e 96 111
e 96 113
e 96 114
e 96 124
e 96 128
e 96 129
e 96 134
e 96 135
e 96 137
e 96 139
e 96 141
e 96 142
e 96 147
e 96 148
e 97 99
e 97 100
e 97 102
e 97 104
e 97 106
e 97 107
e 97 115
e 97 122
e 97 125
e 97 132
e 97 134
e 97 136
e 97 137
e 97 140
e 97 146
e 98 99
e 98 101
e 98 103
e 98 105
e 98 107
e 98 108
e 98 112
e 98 116
e 98 118
e 98 119
e 98 130
e 98 132
e 98 139
e 98 144
e 98 145
e 98 149
e 99 105
e 99 121
e 99 125
e 99 126
e 99 128
e 99 134
e 99 135
e 99 146
e 99 147
e 99 150
e 100 104
e 100 107
e 100 108
e 100 109
e 100 112
e 100 117
e 100 121
e 100 123
e 100 128
e 100 141
e 100 147
e 101 103
e 101 106
e 101 107
e 101 109
e 101 117
e 101 119
e 101 124
e 101 125
e 101 128
e 101 131
e 101 133
e 101 134
e 101 138
e 101 142
e 101 144
e 101 148
e 102 107
e 102 110
e 102 113
e 102 117
e 102 125
e 102 126
e 102 128
e 102 129
e 102 136
e 102 141
e 102 144
e 102 145
e 102 146
e 102 150
e 103 104
e 103 109
e 103 111
e 103 115
e 103 118
e 103 131
e 103 132
e 103 134
e 103 148
e 104 105
e 104 113
e 104 119
e 104 120
e 104 122
e 104 124
e 104 125
e 104 126
e 104 130
e 104 133
e 104 134
e 104 135
e 104 138
e 104 139
e 104 145
e 104 149
e 104 150
e 105 108
e 105 110
e 105 111
e 105 114
e 105 118
e 105 122
e 105 126
e 105 133
e 105 136
e 105 138
e 106 113
e 106 118
e 106 126
e 106 128
e 106 130
e 106 133
e 106 143
e 106 145
e 106 147
e 106 148
e 106 149
e 107 110
e 107 111
e 107 113
e 107 114
e 107 116
e 107 120
e 107 126
e 107 127
e 107 130
e 107 133
e 107 137
e 107 138
e 107 141
e 107 142
e 107 143
e 107 145
e 107 147
e 107 148
e 107 150
e 108 110
e 108 119
e 108 121
e 108 122
e 108 123
e 108 125
e 108 128
e 108 131
e 108 134
e 108 142
e 108 145
e 108 148
e 108 150
e 109 111
e 109 112
e 109 113
e 109 115
e 109 120
e 109 121
e 109 122
e 109 126
e 109 131
e 109 134
e 109 136
e 109 137
e 109 141
e 109 142
e 109 143
e 109 145
e 109 148
e 109 150
e 110 122
e 110 124
e 110 125
e 110 126
e 110 133
e 110 140
e 110 142
e 110 143
e 110 150
e 111 115
e 111 118
e 111 119
e 111 123
e 111 133
e 111 134
e 111 135
e 111 136
e 111 141
e 111 148
e 111 149
e 112 114
e 112 116
e 112 118
e 112 119
e 112 120
e 112 121
e 112 123
e 112 125
e 112 127
e 112 128
e 112 130
e 112 134
e 112 135
e 112 150
e 113 115
e 113 116
e 113 118
e 113 127
e 113 129
e 113 130
e 113 133
e 113 141
e 113 148
e 113 149
e 114 115
e 114 119
e 114 127
e 114 133
e 114 135
e 114 143
e 114 145
e 115 118
e 115 119
e 115 121
e 115 124
e 115 125
e 115 133
e 115 140
e 115 141
e 115 144
e 115 149
e 116 118
e 116 121
e 116 123
e 116 127
e 116 129
e 116 130
e 116 137
e 116 139
e 116 142
e 116 143
e 116 146
e 116 149
e 117 122
e 117 123
e 117 130
e 117 132
e 117 134
e 117 138
e 117 140
e 117 146
e 117 148
e 118 120
e 118 125
e 118 130
e 118 132
e 118 134
e 118 137
e 118 142
e 118 143
e 118 144
e 118 148
e 119 120
e 119 121
e 119 124
e 119 129
e 119 132
e 119 133
e 119 142
e 119 144
e 120 127
e 120 128
e 120 137
e 120 140
e 121 123
e 121 124
e 121 126
e 121 127
e 121 130
e 121 133
e 121 134
e 121 140
e 121 141
e 121 145
e 121 149
e 122 125
e 122 128
e 122 129
e 122 138
e 122 148
e 122 149
e 123 126
e 123 128
e 123 130
e 123 131
e 123 138
e 123 142
e 124 126
e 124 127
e 124 128
e 124 132
e 124 137
e 124 141
e 124 145
e 124 146
e 124 148
e 124 150
e 125 127
e 125 128
e 125 134
e 125 142
e 125 147
e 125 148
e 126 127
e 126 128
e 126 135
e 126 139
e 126 142
e 126 146
e 126 147
e 126 148
e 127 129
e 127 130
e 127 133
e 127 137
e 127 145
e 127 146
e 128 129
e 128 130
e 128 134
e 128 137
e 128 140
e 128 141
e 128 142
e 128 145
e 129 132
e 129 135
e 129 136
e 129 137
e 129 139
e 129 140
e 129 145
e 129 149
e 129 150
e 130 131
e 130 133
e 130 139
e 130 140
e 130 146
e 130 149
e 131 134
e 131 139
e 131 145
e 131 146
e 131 147
e 131 149
e 132 138
e 132 140
e 132 143
e 133 144
e 133 146
e 133 147
e 134 136
e 134 138
e 134 141
e 134 149
e 135 139
e 135 141
e 135 148
e 136 137
e 136 138
e 136 145
e 136 149
e 137 138
e 137 140
e 137 147
e 137 148
e 138 143
e 138 145
e 138 148
e 138 149
e 139 145
e 139 146
e 140 141
e 140 143
e 140 145
e 140 146
e 140 148
e 140 150
e 141 144
e 142 143
e 142 144
e 142 150
e 143 146
e 143 147
e 143 149
e 144 145
e 144 146
e 144 148
e 144 150
e 145 147
e 146 148
e 146 149
